#===============================================================================
# This is the input file of FORTRAN77 program "sdm2013a" for inversion of slip
# distribution from InSAR data by the Steepst Descent Method (SDM).
#
# written by Rongjiang Wang
# GeoForschungsZentrum Potsdam
# e-mail: wang@gfz-potsdam.de
# Phone +49 331 2881209
# Fax +49 331 2881204
#
# Last modified: Potsdam, June, 2020
#
#################################################################
##                                                             ##
## If not specified otherwise, SI Unit System is used overall! ##
##                                                             ##
## For the local Cartesian coordinate system, the Aki's        ##
## convention is used: x is northward, y is eastward, and z is ##
## downward                                                    ##
##                                                             ##
## No blank line is allowed!                                   ##
##                                                             ##
## Any comment line should start with "#"!                     ##
##                                                             ##
#################################################################
#
#================================================================================
#
# 1. selection for homogeneous (1) or layered (0) earth model
# 2. if homogeneous model is selected, then
#      Poisson ratio
#    else
#      directory of differetial Green's functions, three file names (without
#      the extension representing source type) for the vertical, radial and
#      tangential component, respectively. all in char format and in one line.
#
#================================================================================
1
0.25
# 0
# './grn/'  'uz'  'ur'  'ut'
#================================================================================
# FAULT GEOMETRY/A-PRIORI CONDITIONS
# ==================================
# 1. idisc: switch (0/1) for subfaults input form,
#    0 = read discrete patches from files or 1 = automatic discretization
#================================================================================
#   idisc
#-------------------------------------------------------------------------------- 
    1
#-------------------------------------------------------------------------------- 
#
# IF(idisc = 0)THEN
#
# 2. ns: number of subfaults (<= NSMAX in sdmglob.h)
# 3. parameters for the 1. subfault
# 4. parameters for the 2. subfault
# ...
#
#        subfault paramters
#        ==================
#        n:                 numbering of the subfault
#        rake1/rake2:       rake range (rake1 <= rake2)
#                           => a-priori constraint
#                           (Note definition convention: (-180.0, 180.0) or
#                           (0.0, 360.0))
#        max_slip:          upper limit of slip amplitude
#                           => a-priori constraint
#        file_name:         data file for discrete patches
#        iref               selection of the patch reference location
#
#   Note:
#   the file includes one header line followed by 7 columns of data:
#
#   latitude[deg], longitude[deg], depth[km], length[km], width[km],
#   strike[deg], dip[deg]
#
#   where (lat, lon, dep) is the reference location of the patch depending
#   on iref: 1 = upper-left corner, 2 = upper-right corner,
#            3 = lower-left corner, 4 = lower-right corner,
#         else = central point (s. Fig.)
#
#        definitions for a rectangular fault patch
#        =========================================
#
#                 north(x)
#                  /
#                 / | strike
#            ref 1-----------------------2
#                |\        p .            \ W
#                :-\      i .              \ i
#                |  \    l .                \ d
#                :90 \  S .                  \ t
#                |-dip\  .                    \ h
#                :     \. ) rake               \ 
#          downward(z)  3-----------------------4
#                         L   e   n   g   t   h
#
#================================================================================
#   N (total number of subfaults)
#   n[-]  rake1[deg]  rake2[deg]   max_slip[m]           file_name               iref
#--------------------------------------------------------------------------------
#     1
#     1      -95         -85          0.50         './data/fault_patches.txt'      0
#--------------------------------------------------------------------------------
#
# ELSE
#
# 2. ns: number of subfaults (<= NSMAX in sdmglob.h)
# 3. parameters for the 1. subfault
# 4. parameters for the 2. subfault
# ...
#
#        subfault paramters
#        ==================
#        n:                 numbering of the subfault
#        top_depth:         depth of top fault edge
#        btm_depth:         depth of bottom fault edge
#                           (btm_depth > top_depth)
#        patch_size:        approximate size of the automatically discretized
#                           fault patches
#
#        rake1/rake2:       rake range (rake1 <= rake2)
#                           => a-priori constraint
#                           (Note definition convention: (-180.0, 180.0) or
#                           (0.0, 360.0))
#        max_slip:          upper limit of slip amplitude
#                           => a-priori constraint
#
#        nwft:              number (2 <= nwft <= nwft_max) of reference wefts
#                           defining the curved fault surface, which are not
#                           necessarily equidistant but approximately
#                           perpendicular to and arranged along the strike.
#                           (Note: the size of nwft depends on the curvature of
#                                  the fault, nwft = 2 for straight fault)
#
#        idip               selection of location for where the input dip is
#                           valid:
#                           idip = 1 -> upper edge
#                                  2 -> lower edge
#                               else -> no input dip (constant dip will be used)
#
#        igrid              selection of grid mesh rule:
#                           igrid = 1 -> possibly uniform patch size
#                                else -> uniform number of patches along dip
#
#        top_lat/lon:       geographic coordinates of the top edge of the
#                           reference weft
#        btm_lat/lon:       geographic coordinates of the bottom edge of the
#                           reference weft
#
#        dip:               dip angle (0.0, 180.0) at the selected location (idip)
#
#                           (Note: 1. the range of dip angle is redefined: it may
#                                  be > 0?and < 180?degree, so that connecting
#                                  subfaults can be represented without to change
#                                  the strike by 180? additionally top_dip = 90?
#                                  is only allowed for vertical fault, i.e., in
#                                  case (top_lat, top_lon) = (btm_lat, btm_lon)
#                                  2. the dip angle can only be given either for
#                                  the upper edge or for the lower edge. the dip
#                                  angle for other locations will be determined
#                                  automatically by assuming that it varies
#                                  linearly with depth)
#
#================================================================================
#   N (total number of discontinuous fault segments)
#   n[-]  top_depth[km]  btm_depth[km]  patch_size[km]
#         rake1[deg]     rake2[deg]     max_slip[m]
#         nwft           idip
#  1_st:  top_lat[deg]   top_lon[deg]   btm_lat[deg] btm_lon[deg]    dip[deg]
#    ......
#  n_th:  top_lat[deg]   top_lon[deg]   btm_lat[deg] btm_lon[deg]    dip[deg]
#--------------------------------------------------------------------------------
    2
    1    0.0            17.32          0.84
         -95.0         -85.0           0.5
         2              1               1              
		 37.9986223065935	-118.569253636019	37.9085313166031	-118.568558819879	60.0
		 37.9865243418023   -117.997895817494   37.9099045784621    -118.000000000000   60.0
    2    0.0            17.32          0.84
         -95.0         -85.0           0.5
         2              1               1             
		 37.9865243418023   -117.997895817494   37.9099045784621    -118.000000000000   60.0
         37.9986223065935	-117.430746363981	37.9085313166031	-117.431441180121	60.0
#===============================================================================
# GEODETIC (GPS/InSAR) DATA                                                                
# =========================                                                          
# 1. number of data sets (<= NINSMAX defined in sdmglob.h), unit in metre of    
#    data, and number of header lines
#
# 2.1. file names for unfiltered and filtered data set 1 (data format by 4[+2]
#      columns: lat[deg], lon[deg], data, error, [incidence, azimuth])
# 2.2. the weighting factor, selection (1/0 = yes/no) for evaluating free offset
#      in this data set, selection for constant (1) or position dependent (0)
#      orientation of the displacement, in case of the constant orientation, the
#      incidence and azimuth angles [deg] (examples: 90.0, 0.0 for x (north)
#      displacement; 90.0, 90.0 for y (east) displacement; 0.0 0.0 for z (e.g.
#      leveling) component; 23.0, -100.0 for LOS displacement to ascending
#      ENVISAT; 23.0, 100.0 for LOS displacement to descending EVISAT)
#
#      If the orientation of the surface displacement within one dataset is
#      position dependent, the data file should have 6 columns with the
#      incidence and azimuth angles in the 5th and 6th column, respectively.
#
# 3.1. for data set 2;
# ...
#================================================================================
  1  1.0  0
  './data/GICMo_case_2_124.dat'  './data/GICMo_case_2_124.dat'
  1.00  0  1   35.0    350.0                     
#================================================================================
# ITERATION PARAMETERS
# ====================
# 1. the maximum number of iterations for minimizing the cost function
#    (Note: if the number iterations = 0, then forward modeling will be done
#           using the given slip distribution, see below)
#
# 2. select the observable to be smoothed (1 = smoothing slip distribution; 2 =
#    smoothing stress drop distribution), the normalized smoothing factor
#================================================================================
 50
 1  0.24
#================================================================================
# OUTPUTS
# =======
# 1. file name for slip distribution (only one slip file independent whether
#    one or more fault segements are used. in the case of 0 iteration, it
#    includes data of the input slip model)
#
# 2. file names for best-fitting results to observed data sets, one-to-one
#    corresponding to the input displacement data files
#================================================================================
 'slip.dat'
 'output-ulos.dat'
#================================end of input====================================
